(set-info :smt-lib-version 2.6)
(set-logic AUFBVFPDTNIRA)
(set-info :source |
Generated by: AdaCore
Generated on: 2020-03-06
Generator: SPARK
Application: Program verification for Ada
Target solver: CVC4
|)
(set-info :license "https://creativecommons.org/licenses/by/4.0/")
(set-info :category "industrial")
(set-info :status unknown)
;;; generated by SMT-LIB2 driver
;;; SMT-LIB2 driver: bit-vectors, common part
;;; SMT-LIB2: integer arithmetic
(declare-sort string 0)

(declare-datatypes ((tuple0 0))
(((Tuple0))))
(declare-sort us_private 0)

(declare-fun private__bool_eq (us_private us_private) Bool)

(declare-const us_null_ext__ us_private)

(declare-sort us_type_of_heap 0)

(declare-datatypes ((us_type_of_heap__ref 0))
(((us_type_of_heap__refqtmk (us_type_of_heap__content us_type_of_heap)))))
(declare-sort us_image 0)

(declare-datatypes ((int__ref 0))
(((int__refqtmk (int__content Int)))))
(declare-datatypes ((bool__ref 0))
(((bool__refqtmk (bool__content Bool)))))
(declare-datatypes ((us_fixed__ref 0))
(((us_fixed__refqtmk (us_fixed__content Int)))))
(declare-datatypes ((real__ref 0))
(((real__refqtmk (real__content Real)))))
(declare-datatypes ((us_private__ref 0))
(((us_private__refqtmk (us_private__content us_private)))))
(define-fun int__ref___projection ((a int__ref)) Int (int__content a))

(define-fun us_fixed__ref___projection ((a us_fixed__ref)) Int (us_fixed__content
                                                               a))

(define-fun bool__ref___projection ((a bool__ref)) Bool (bool__content a))

(define-fun real__ref___projection ((a real__ref)) Real (real__content a))

(define-fun us_private__ref___projection ((a us_private__ref)) us_private 
  (us_private__content a))

(define-fun in_range ((x Int)) Bool (or (= x 0) (= x 1)))

(declare-fun attr__ATTRIBUTE_IMAGE (Bool) us_image)

(declare-fun attr__ATTRIBUTE_VALUE__pre_check (us_image) Bool)

(declare-fun attr__ATTRIBUTE_VALUE (us_image) Bool)

(declare-sort character 0)

(define-fun in_range1 ((x Int)) Bool (and (<= 0 x) (<= x 255)))

(declare-fun attr__ATTRIBUTE_IMAGE1 (Int) us_image)

(declare-fun attr__ATTRIBUTE_VALUE__pre_check1 (us_image) Bool)

(declare-fun attr__ATTRIBUTE_VALUE1 (us_image) Int)

(declare-fun user_eq (character character) Bool)

(declare-const dummy character)

(declare-datatypes ((character__ref 0))
(((character__refqtmk (character__content character)))))
(define-fun character__ref_character__content__projection ((a character__ref)) character 
  (character__content a))

(declare-fun to_rep (character) Int)

(declare-fun of_rep (Int) character)

;; inversion_axiom
  (assert
  (forall ((x character))
  (! (= (of_rep (to_rep x)) x) :pattern ((to_rep x)) )))

;; range_axiom
  (assert
  (forall ((x character)) (! (in_range1 (to_rep x)) :pattern ((to_rep x)) )))

;; coerce_axiom
  (assert
  (forall ((x Int))
  (! (=> (in_range1 x) (= (to_rep (of_rep x)) x)) :pattern ((to_rep
                                                            (of_rep x))) )))

(declare-datatypes ((map__ref 0))
(((map__refqtmk (map__content (Array Int character))))))
(declare-fun slide ((Array Int character) Int Int) (Array Int character))

;; slide_eq
  (assert
  (forall ((a (Array Int character)))
  (forall ((first Int))
  (! (= (slide a first first) a) :pattern ((slide a first first)) ))))

;; slide_def
  (assert
  (forall ((a (Array Int character)))
  (forall ((old_first Int))
  (forall ((new_first Int))
  (forall ((i Int))
  (! (= (select (slide a old_first new_first) i) (select a (- i (- new_first old_first)))) :pattern ((select 
  (slide a old_first new_first) i)) ))))))

(define-fun bool_eq ((a (Array Int character)) (a__first Int) (a__last Int)
  (b (Array Int character)) (b__first Int)
  (b__last Int)) Bool (ite (and
                           (ite (<= a__first a__last)
                           (and (<= b__first b__last)
                           (= (- a__last a__first) (- b__last b__first)))
                           (< b__last b__first))
                           (forall ((temp___idx_91 Int))
                           (=>
                           (and (<= a__first temp___idx_91)
                           (<= temp___idx_91 a__last))
                           (= (to_rep (select a temp___idx_91)) (to_rep
                                                                (select b (+ (- b__first a__first) temp___idx_91)))))))
                      true false))

;; bool_eq_rev
  (assert
  (forall ((a (Array Int character)) (b (Array Int character)))
  (forall ((a__first Int) (a__last Int) (b__first Int) (b__last Int))
  (=> (= (bool_eq b b__first b__last a a__first a__last) true)
  (and
  (ite (<= a__first a__last)
  (and (<= b__first b__last) (= (- a__last a__first) (- b__last b__first)))
  (< b__last b__first))
  (forall ((temp___idx_91 Int))
  (=> (and (<= a__first temp___idx_91) (<= temp___idx_91 a__last))
  (= (to_rep (select a temp___idx_91)) (to_rep
                                       (select b (+ (- b__first a__first) temp___idx_91)))))))))))

(declare-sort integer 0)

(declare-fun integerqtint (integer) Int)

;; integer'axiom
  (assert
  (forall ((i integer))
  (and (<= (- 2147483648) (integerqtint i)) (<= (integerqtint i) 2147483647))))

(define-fun in_range2 ((x Int)) Bool (and (<= (- 2147483648) x)
                                     (<= x 2147483647)))

(declare-fun attr__ATTRIBUTE_IMAGE2 (Int) us_image)

(declare-fun attr__ATTRIBUTE_VALUE__pre_check2 (us_image) Bool)

(declare-fun attr__ATTRIBUTE_VALUE2 (us_image) Int)

(declare-fun user_eq1 (integer integer) Bool)

(declare-const dummy1 integer)

(declare-datatypes ((integer__ref 0))
(((integer__refqtmk (integer__content integer)))))
(define-fun integer__ref_integer__content__projection ((a integer__ref)) integer 
  (integer__content a))

(declare-sort positive 0)

(declare-fun positiveqtint (positive) Int)

;; positive'axiom
  (assert
  (forall ((i positive))
  (and (<= 1 (positiveqtint i)) (<= (positiveqtint i) 2147483647))))

(define-fun in_range3 ((x Int)) Bool (and (<= 1 x) (<= x 2147483647)))

(declare-fun attr__ATTRIBUTE_IMAGE3 (Int) us_image)

(declare-fun attr__ATTRIBUTE_VALUE__pre_check3 (us_image) Bool)

(declare-fun attr__ATTRIBUTE_VALUE3 (us_image) Int)

(declare-fun user_eq2 (positive positive) Bool)

(declare-const dummy2 positive)

(declare-datatypes ((positive__ref 0))
(((positive__refqtmk (positive__content positive)))))
(define-fun positive__ref_positive__content__projection ((a positive__ref)) positive 
  (positive__content a))

(define-fun to_rep1 ((x integer)) Int (integerqtint x))

(declare-fun of_rep1 (Int) integer)

;; inversion_axiom
  (assert
  (forall ((x integer))
  (! (= (of_rep1 (to_rep1 x)) x) :pattern ((to_rep1 x)) )))

;; range_axiom
  (assert
  (forall ((x integer)) (! (in_range2 (to_rep1 x)) :pattern ((to_rep1 x)) )))

;; coerce_axiom
  (assert
  (forall ((x Int))
  (! (=> (in_range2 x) (= (to_rep1 (of_rep1 x)) x)) :pattern ((to_rep1
                                                              (of_rep1 x))) )))

(declare-sort t 0)

(declare-fun first (t) integer)

(declare-fun last (t) integer)

(declare-fun mk (Int Int) t)

;; mk_def
  (assert
  (forall ((f Int) (l Int))
  (! (=> (in_range2 f)
     (=> (in_range2 l)
     (and (= (to_rep1 (first (mk f l))) f) (= (to_rep1 (last (mk f l))) l)))) :pattern (
  (mk f l)) )))

(define-fun dynamic_property ((range_first Int) (range_last Int) (low Int)
  (high Int)) Bool (and (in_range2 low)
                   (and (in_range2 high)
                   (=> (<= low high) (and (in_range3 low) (in_range3 high))))))

(declare-datatypes ((us_t 0))
(((us_tqtmk (elts (Array Int character))(rt t)))))
(define-fun to_array ((a us_t)) (Array Int character) (elts a))

(define-fun of_array ((a (Array Int character)) (f Int)
  (l Int)) us_t (us_tqtmk a (mk f l)))

(define-fun first1 ((a us_t)) Int (to_rep1 (first (rt a))))

(define-fun last1 ((a us_t)) Int (to_rep1 (last (rt a))))

(define-fun length ((a us_t)) Int (ite (<= (first1 a) (last1 a))
                                  (+ (- (last1 a) (first1 a)) 1) 0))

(declare-const value__size Int)

(declare-const object__size Int)

(declare-const component__size Int)

(declare-const alignment Int)

;; value__size_axiom
  (assert (<= 0 value__size))

;; object__size_axiom
  (assert (<= 0 object__size))

;; component__size_axiom
  (assert (<= 0 component__size))

;; alignment_axiom
  (assert (<= 0 alignment))

(define-fun bool_eq1 ((x us_t)
  (y us_t)) Bool (bool_eq (elts x) (to_rep1 (first (rt x)))
                 (to_rep1 (last (rt x))) (elts y) (to_rep1 (first (rt y)))
                 (to_rep1 (last (rt y)))))

(declare-fun user_eq3 (us_t us_t) Bool)

(declare-const dummy3 us_t)

(declare-datatypes ((string____ref 0))
(((string____refqtmk (string____content us_t)))))
(define-fun string____ref_string____content__projection ((a string____ref)) us_t 
  (string____content a))

(define-fun dynamic_invariant ((temp___expr_96 us_t) (temp___is_init_92 Bool)
  (temp___skip_constant_93 Bool) (temp___do_toplevel_94 Bool)
  (temp___do_typ_inv_95 Bool)) Bool (=>
                                    (not (= temp___skip_constant_93 true))
                                    (dynamic_property 1 2147483647
                                    (first1 temp___expr_96)
                                    (last1 temp___expr_96))))

(declare-const dummy4 (Array Int character))

(declare-const value__size1 Int)

(declare-const object__size1 Int)

(declare-const component__size1 Int)

(declare-const alignment1 Int)

;; value__size_axiom
  (assert (<= 0 value__size1))

;; object__size_axiom
  (assert (<= 0 object__size1))

;; component__size_axiom
  (assert (<= 0 component__size1))

;; alignment_axiom
  (assert (<= 0 alignment1))

(declare-fun user_eq4 ((Array Int character) (Array Int character)) Bool)

(declare-datatypes ((us_split_fields 0))
(((us_split_fieldsqtmk
  (rec__instr__instrument__name (Array Int character))(rec__ext__ us_private)))))
(define-fun us_split_fields_rec__instr__instrument__name__projection ((a us_split_fields)) (Array Int character) 
  (rec__instr__instrument__name a))

(define-fun us_split_fields_rec__ext____projection ((a us_split_fields)) us_private 
  (rec__ext__ a))

(declare-datatypes ((us_split_fields__ref 0))
(((us_split_fields__refqtmk (us_split_fields__content us_split_fields)))))
(define-fun us_split_fields__ref___split_fields__content__projection ((a us_split_fields__ref)) us_split_fields 
  (us_split_fields__content a))

(declare-datatypes ((us_rep 0))
(((us_repqtmk (us_split_fields1 us_split_fields)(attr__tag Int)))))
(define-fun us_rep___split_fields__projection ((a us_rep)) us_split_fields 
  (us_split_fields1 a))

(define-fun us_rep_attr__tag__projection ((a us_rep)) Int (attr__tag a))

(define-fun bool_eq2 ((a us_rep)
  (b us_rep)) Bool (ite (= (bool_eq
                           (rec__instr__instrument__name
                           (us_split_fields1 a)) 1 14
                           (rec__instr__instrument__name
                           (us_split_fields1 b)) 1 14) true)
                   true false))

(declare-fun us_dispatch_eq (us_rep us_rep) Bool)

(declare-const us_tag Int)

(declare-const value__size2 Int)

(declare-const object__size2 Int)

(declare-const alignment2 Int)

;; value__size_axiom
  (assert (<= 0 value__size2))

;; object__size_axiom
  (assert (<= 0 object__size2))

;; alignment_axiom
  (assert (<= 0 alignment2))

(declare-const instr__instrument__name__first__bit Int)

(declare-const instr__instrument__name__last__bit Int)

(declare-const instr__instrument__name__position Int)

;; instr__instrument__name__first__bit_axiom
  (assert (<= 0 instr__instrument__name__first__bit))

;; instr__instrument__name__last__bit_axiom
  (assert
  (< instr__instrument__name__first__bit instr__instrument__name__last__bit))

;; instr__instrument__name__position_axiom
  (assert (<= 0 instr__instrument__name__position))

(declare-fun user_eq5 (us_rep us_rep) Bool)

(declare-const dummy5 us_rep)

(declare-datatypes ((instrument__ref 0))
(((instrument__refqtmk (instrument__content us_rep)))))
(define-fun instrument__ref_instrument__content__projection ((a instrument__ref)) us_rep 
  (instrument__content a))

(declare-const x__attr__tag Int)

(declare-const attr__ATTRIBUTE_ADDRESS Int)

(declare-fun temp___String_Literal_177 (tuple0) (Array Int character))

;; temp___String_Literal_177__def_axiom
  (assert
  (forall ((us_void_param tuple0))
  (! (and
     (and
     (= (to_rep (select (temp___String_Literal_177 us_void_param) 1)) 32)
     (= (to_rep (select (temp___String_Literal_177 us_void_param) 2)) 32))
     (and
     (and
     (and
     (and
     (= (to_rep (select (temp___String_Literal_177 us_void_param) 3)) 32)
     (= (to_rep (select (temp___String_Literal_177 us_void_param) 4)) 32))
     (= (to_rep (select (temp___String_Literal_177 us_void_param) 5)) 32))
     (and
     (and
     (= (to_rep (select (temp___String_Literal_177 us_void_param) 6)) 32)
     (= (to_rep (select (temp___String_Literal_177 us_void_param) 7)) 32))
     (= (to_rep (select (temp___String_Literal_177 us_void_param) 8)) 32)))
     (and
     (and
     (and
     (= (to_rep (select (temp___String_Literal_177 us_void_param) 9)) 32)
     (= (to_rep (select (temp___String_Literal_177 us_void_param) 10)) 32))
     (= (to_rep (select (temp___String_Literal_177 us_void_param) 11)) 32))
     (and
     (and
     (= (to_rep (select (temp___String_Literal_177 us_void_param) 12)) 32)
     (= (to_rep (select (temp___String_Literal_177 us_void_param) 13)) 32))
     (= (to_rep (select (temp___String_Literal_177 us_void_param) 14)) 32))))) :pattern (
  (temp___String_Literal_177 us_void_param)) )))

(define-fun default_initial_assumption ((temp___expr_175 us_rep)
  (temp___skip_top_level_176 Bool)) Bool (and
                                         (= (attr__tag temp___expr_175) 
                                         us_tag)
                                         (= (rec__instr__instrument__name
                                            (us_split_fields1
                                            temp___expr_175)) (temp___String_Literal_177
                                                              Tuple0))))

(declare-const s us_t)

(declare-const attr__ATTRIBUTE_ADDRESS1 Int)

(declare-const attr__ATTRIBUTE_ADDRESS2 Int)

(declare-sort t1s 0)

(declare-fun t1sqtint (t1s) Int)

;; t1s'axiom
  (assert (forall ((i t1s)) (and (<= 1 (t1sqtint i)) (<= (t1sqtint i) 14))))

(define-fun in_range4 ((x Int)) Bool (and (<= 1 x) (<= x 14)))

(declare-fun attr__ATTRIBUTE_IMAGE4 (Int) us_image)

(declare-fun attr__ATTRIBUTE_VALUE__pre_check4 (us_image) Bool)

(declare-fun attr__ATTRIBUTE_VALUE4 (us_image) Int)

(declare-fun user_eq6 (t1s t1s) Bool)

(declare-const dummy6 t1s)

(declare-datatypes ((t1s__ref 0))
(((t1s__refqtmk (t1s__content t1s)))))
(define-fun t1s__ref_t1s__content__projection ((a t1s__ref)) t1s (t1s__content
                                                                 a))

(define-fun dynamic_invariant1 ((temp___expr_46 Int) (temp___is_init_42 Bool)
  (temp___skip_constant_43 Bool) (temp___do_toplevel_44 Bool)
  (temp___do_typ_inv_45 Bool)) Bool (=>
                                    (or (= temp___is_init_42 true)
                                    (<= 1 2147483647)) (in_range3
                                    temp___expr_46)))

(define-fun dynamic_invariant2 ((temp___expr_74 Int) (temp___is_init_70 Bool)
  (temp___skip_constant_71 Bool) (temp___do_toplevel_72 Bool)
  (temp___do_typ_inv_73 Bool)) Bool (=>
                                    (or (= temp___is_init_70 true)
                                    (<= 0 255)) (in_range1 temp___expr_74)))

(define-fun dynamic_invariant3 ((temp___expr_18 Int) (temp___is_init_14 Bool)
  (temp___skip_constant_15 Bool) (temp___do_toplevel_16 Bool)
  (temp___do_typ_inv_17 Bool)) Bool (=>
                                    (or (= temp___is_init_14 true)
                                    (<= (- 2147483648) 2147483647))
                                    (in_range2 temp___expr_18)))

(assert
;; defqtvc
 ;; File "instr.ads", line 17, characters 0-0
  (not
  (forall ((x__split_fields us_split_fields))
  (=> (dynamic_invariant s true false true true)
  (let ((temp___340 (first1 s)))
  (let ((temp___341 (last1 s)))
  (forall ((j Int))
  (=> (= j temp___340)
  (=>
  (= (and (ite (<= temp___340 j) true false) (ite (<= j temp___341) true
                                             false)) true)
  (forall ((x__split_fields1 us_split_fields) (j1 Int))
  (=>
  (= (and (ite (forall ((temp___346 Int))
               (=> (and (<= 1 temp___346) (<= temp___346 14))
               (=>
               (or (< temp___341 temp___346)
               (or (< temp___346 temp___340) (<= j1 temp___346)))
               (= (select (rec__instr__instrument__name x__split_fields1) temp___346) (select 
               (rec__instr__instrument__name x__split_fields) temp___346)))))
          true false) (ite (and (<= (first1 s) j1) (<= j1 (last1 s))) true
                      false)) true)
  (forall ((o Int))
  (=> (= (to_rep (select (to_array s) j1)) o)
  (forall ((o1 character)) (=> (= (to_rep o1) o) (<= 1 j1))))))))))))))))
(check-sat)
